# stolennodes thread0 thread1 thread2 thread3 thread4 thread5 thread6 thread7 thread8 thread9 thread10 thread11 thread12 thread13 thread14 thread15
0 0 0 0 0 0 0 0 0 0 0 0 0 0 0 0 0
15 0 0 0 0 0 0 0 0 0 0 0 0 0 0 0 0
30 0 0 0 0 0 0 0 0 0 0 0 0 0 0 0 0
45 0 0 0 0 0 0 0 0 0 0 0 0 0 0 0 0
60 0 0 0 0 0 0 0 0 0 0 0 0 0 0 0 0
75 0 0 0 0 0 0 0 0 0 0 0 0 0 0 0 0
90 0 0 0 0 0 0 0 0 0 0 0 0 0 0 0 0
105 0 0 0 0 0 0 0 0 0 0 0 0 0 0 0 0
120 0 0 0 0 0 0 0 0 0 0 0 0 0 0 0 0
135 0 0 0 0 0 0 0 0 0 0 0 0 0 0 0 0
150 0 0 0 0 0 0 0 0 0 0 0 0 0 0 0 0
165 0 0 0 0 0 0 0 0 0 0 0 0 0 0 0 0
180 0 0 0 0 0 0 0 0 0 0 0 0 0 0 0 0
195 0 0 0 0 0 0 0 0 0 0 0 0 0 0 0 0
210 0 0 0 0 0 0 0 0 0 0 0 0 0 0 0 0
225 0 0 0 0 0 0 0 0 0 0 0 0 0 0 0 0
240 0 0 0 0 0 0 0 0 0 0 0 0 0 0 0 0
255 0 0 0 0 0 0 0 0 0 0 0 0 0 0 0 0
270 0 0 0 0 0 0 0 0 0 0 0 0 0 0 0 0
285 0 0 0 0 0 0 0 0 0 0 0 0 0 0 0 0
300 0 0 0 0 0 0 0 0 0 0 0 0 0 0 0 0
315 0 0 0 0 0 0 0 0 0 0 0 0 0 0 0 0
330 0 0 0 0 0 0 0 0 0 0 0 0 0 0 0 0
345 0 0 0 0 0 0 0 0 0 0 0 0 0 0 0 0
360 0 0 0 0 0 0 0 0 0 0 0 0 0 0 0 0
375 0 0 0 0 0 0 0 0 0 0 0 0 0 0 0 0
390 0 0 0 0 0 0 0 0 0 0 0 0 0 0 0 0
405 0 0 0 0 0 0 0 0 0 0 0 0 0 0 0 0
420 0 0 0 0 0 0 0 0 0 0 0 0 0 0 0 0
435 0 0 0 0 0 0 0 0 0 0 0 0 0 0 0 0
450 0 0 0 0 0 0 0 0 0 0 0 0 0 0 0 0
465 0 0 0 0 0 0 0 0 0 0 0 0 0 0 0 0
480 0 0 0 0 0 0 0 0 0 0 0 0 0 0 0 0
495 0 0 0 0 0 0 0 0 0 0 0 0 0 0 0 0
510 0 0 0 0 0 0 0 0 0 0 0 0 0 0 0 0
525 0 0 0 0 0 0 0 0 0 0 0 0 0 0 0 0
540 0 0 0 0 0 0 0 0 0 0 0 0 0 0 0 0
555 0 0 0 0 0 0 0 0 0 0 0 0 0 0 0 0
570 0 0 0 0 0 0 0 0 0 0 0 0 0 0 0 0
585 0 0 0 0 0 0 0 0 0 0 0 0 0 0 0 0
600 0 0 0 0 0 0 0 0 0 0 0 0 0 0 0 0
615 0 0 0 0 0 0 0 0 0 0 0 0 0 0 0 0
630 0 0 0 0 0 0 0 0 0 0 0 0 0 0 0 0
645 0 0 0 0 0 0 0 0 0 0 0 0 0 0 0 0
660 0 0 0 0 0 0 0 0 0 0 0 0 0 0 0 0
675 0 0 0 0 0 0 0 0 0 0 0 0 0 0 0 0
690 0 0 0 0 0 0 0 0 0 0 0 0 0 0 0 0
705 0 0 0 0 0 0 0 0 0 0 0 0 0 0 0 0
720 0 0 0 0 0 0 0 0 0 0 0 0 0 0 0 0
735 0 0 0 0 0 0 0 0 0 0 0 0 0 0 0 0
750 0 0 0 0 0 0 0 0 0 0 0 0 0 0 0 0
765 0 0 0 0 0 0 0 0 0 0 0 0 0 0 0 0
780 0 0 0 0 0 0 0 0 0 0 0 0 0 0 0 0
795 0 0 0 0 0 0 0 0 0 0 0 0 0 0 0 0
810 0 0 0 0 0 0 0 0 0 0 0 0 0 0 0 0
825 0 0 0 0 0 0 0 0 0 0 0 0 0 0 0 0
840 0 0 0 0 0 0 0 0 0 0 0 0 0 0 0 0
855 0 0 0 0 0 0 0 0 0 0 0 0 0 0 0 0
870 0 0 0 0 0 0 0 0 0 0 0 0 0 0 0 0
885 0 0 0 0 0 0 0 0 0 0 0 0 0 0 0 0
900 0 0 0 0 0 0 0 0 0 0 0 0 0 0 0 0
915 0 0 0 0 0 0 0 0 0 0 0 0 0 0 0 0
930 0 0 0 0 0 0 0 0 0 0 0 0 0 0 0 0
945 0 0 0 0 0 0 0 0 0 0 0 0 0 0 0 0
960 0 0 0 0 0 0 0 0 0 0 0 0 0 0 0 0
975 0 0 0 0 0 0 0 0 0 0 0 0 0 0 0 17
990 0 0 0 0 0 0 0 0 0 0 0 0 0 0 0 11
1005 0 0 0 0 0 0 0 0 0 0 0 0 0 0 0 10
1020 0 0 0 0 0 0 0 0 0 0 0 0 0 0 0 8
1035 0 0 0 0 0 0 0 0 0 0 0 0 0 0 0 5
1050 0 0 0 0 0 0 0 0 0 0 0 0 0 0 0 3
1065 0 0 0 0 0 0 0 0 0 0 0 0 0 0 0 0
1080 0 0 0 0 0 0 0 0 0 0 0 0 0 0 0 11
1095 0 0 0 0 0 0 0 0 0 0 0 0 0 0 0 11
1110 0 0 0 0 0 0 0 0 0 0 0 0 0 0 0 17
1125 0 0 0 0 0 0 0 0 0 0 0 0 0 0 0 7
1140 0 0 0 0 0 0 0 0 0 0 0 0 0 0 0 0
1155 0 0 0 0 0 0 0 0 0 0 0 0 0 0 0 3
1170 0 0 0 0 0 0 0 0 0 0 0 0 0 0 0 6
1185 0 0 0 0 0 0 0 0 0 0 0 0 0 0 0 1
1200 0 0 0 0 0 0 0 0 0 0 0 0 0 0 0 3
1215 0 0 0 0 0 0 0 0 0 0 0 0 0 0 0 3
1230 0 0 0 0 0 0 0 0 0 0 0 0 0 0 0 4
1245 0 0 0 0 0 0 0 0 0 0 0 0 0 0 0 3
1260 0 0 0 0 0 0 0 0 0 0 0 0 0 0 45 0
1275 0 0 0 0 0 0 0 0 0 0 0 0 0 0 31 46
1290 0 0 0 0 0 0 0 0 0 0 0 0 0 0 28 20
1305 0 0 0 0 0 0 0 0 0 0 0 0 0 0 4 15
1320 0 0 0 0 0 0 0 0 0 0 0 0 0 0 2 8
1335 0 0 0 0 0 0 0 0 0 0 0 56 0 0 1 13
1350 0 0 0 0 0 0 0 0 0 0 0 48 0 0 3 14
1365 0 0 0 0 0 0 0 0 0 0 0 61 55 0 2 3
1380 0 0 0 0 0 0 0 0 0 0 0 46 28 0 2 3
1395 0 0 0 0 0 0 0 0 0 0 0 173 35 49 4 2
1410 0 291 3 0 0 0 0 0 0 0 0 0 46 32 22 1
1425 0 1 1 0 0 0 1 0 0 0 1 2 14 63 17 1
1440 0 1 1 0 0 0 2 0 0 0 7 1 3 489 6 1
1455 0 7 1 0 0 0 268 0 0 0 1 43 2 0 16 0
1470 395 5 13 17 0 0 2 184 0 188 12 13 4 39 16 21
1485 10 30 10 34 60 0 8 9 0 44 46 34 8 17 52 11
